
Gurobi 10.0.2 (linux64) logging started Thu Sep  7 10:02:48 2023

Set parameter LogFile to value "../surrogate_problem/log/surrogate2_10.log"
Set parameter Threads to value 30
Gurobi Optimizer version 10.0.2 build v10.0.2rc0 (linux64)

CPU model: Intel(R) Xeon(R) Platinum 8280 CPU @ 2.70GHz, instruction set [SSE2|AVX|AVX2|AVX512]
Thread count: 112 physical cores, 112 logical processors, using up to 30 threads

Optimize a model with 505 rows, 855 columns and 61335 nonzeros
Model fingerprint: 0x7eb00659
Variable types: 321 continuous, 534 integer (534 binary)
Coefficient statistics:
  Matrix range     [1e-05, 1e+05]
  Objective range  [7e-01, 4e+01]
  Bounds range     [1e+00, 1e+00]
  RHS range        [2e-02, 1e+05]
Found heuristic solution: objective 81529.861727
Presolve removed 286 rows and 286 columns
Presolve time: 0.03s
Presolved: 219 rows, 569 columns, 23666 nonzeros
Variable types: 130 continuous, 439 integer (439 binary)

Root relaxation: objective 6.733405e+04, 91 iterations, 0.00 seconds (0.00 work units)

    Nodes    |    Current Node    |     Objective Bounds      |     Work
 Expl Unexpl |  Obj  Depth IntInf | Incumbent    BestBd   Gap | It/Node Time

     0     0 67334.0501    0    2 81529.8617 67334.0501  17.4%     -    0s
H    0     0                    67334.051345 67334.0501  0.00%     -    0s
     0     0 67334.0501    0    2 67334.0513 67334.0501  0.00%     -    0s

Explored 1 nodes (91 simplex iterations) in 0.06 seconds (0.04 work units)
Thread count was 30 (of 112 available processors)

Solution count 2: 67334.1 81529.9 

Optimal solution found (tolerance 1.00e-04)
Best objective 6.733405134545e+04, best bound 6.733405134545e+04, gap 0.0000%

Gurobi 10.0.2 (linux64) logging started Fri Sep  8 15:08:59 2023

Set parameter LogFile to value "../surrogate_problem/log/surrogate2_10.log"
Gurobi Optimizer version 10.0.2 build v10.0.2rc0 (linux64)

CPU model: Intel(R) Xeon(R) Platinum 8280 CPU @ 2.70GHz, instruction set [SSE2|AVX|AVX2|AVX512]
Thread count: 112 physical cores, 112 logical processors, using up to 30 threads

Optimize a model with 505 rows, 855 columns and 61335 nonzeros
Model fingerprint: 0x7eb00659
Variable types: 321 continuous, 534 integer (534 binary)
Coefficient statistics:
  Matrix range     [1e-05, 1e+05]
  Objective range  [7e-01, 4e+01]
  Bounds range     [1e+00, 1e+00]
  RHS range        [2e-02, 1e+05]
Found heuristic solution: objective 81529.861727
Presolve removed 286 rows and 286 columns
Presolve time: 0.04s
Presolved: 219 rows, 569 columns, 23666 nonzeros
Variable types: 130 continuous, 439 integer (439 binary)

Root relaxation: objective 6.733405e+04, 91 iterations, 0.00 seconds (0.00 work units)

    Nodes    |    Current Node    |     Objective Bounds      |     Work
 Expl Unexpl |  Obj  Depth IntInf | Incumbent    BestBd   Gap | It/Node Time

     0     0 67334.0501    0    2 81529.8617 67334.0501  17.4%     -    0s
H    0     0                    67334.051345 67334.0501  0.00%     -    0s
     0     0 67334.0501    0    2 67334.0513 67334.0501  0.00%     -    0s

Explored 1 nodes (91 simplex iterations) in 0.10 seconds (0.04 work units)
Thread count was 30 (of 112 available processors)

Solution count 2: 67334.1 81529.9 

Optimal solution found (tolerance 1.00e-04)
Best objective 6.733405134545e+04, best bound 6.733405134545e+04, gap 0.0000%
